50
19920

927 177
570 389
494 873
160 137
894 690
231 39
842 632
486 691
661 745
425 54
900 538
799 772
706 535
50 69
672 882
362 127
163 473
802 305
441 836
338 662
214 929
561 518
129 534
964 14
644 486
278 325
246 412
565 636
150 917
692 992
637 367
557 28
260 110
564 503
934 953
648 283
940 974
532 853
775 580
252 385
876 362
680 886
959 985
59 455
543 191
535 797
687 148
636 68
251 426
700 760
